set I := 0 1 2 3 4 5 6 7 8 9 10 11 12 13 14 15 16 17 18 19;

param cap := 150;

param: size:=
    0 100
    1 97
    2 92
    3 88
    4 84
    5 81
    6 76
    7 71
    8 67
    9 63
    10 60
    11 56
    12 53
    13 49
    14 45
    15 42
    16 37
    17 33
    18 27
    19 23;
